; benchmark generated from python API
(set-info :status unknown)
(declare-fun x_days () Int)
(declare-fun y_days () Int)
(assert
 (>= x_days (- 36525)))
(assert
 (<= x_days 36523))
(assert
 (>= y_days (- 36525)))
(assert
 (<= y_days 36523))
(assert
 (>= x_days 8492))
(assert
 (let ((?x2460 (+ x_days 730179)))
 (let ((?x483 (mod ?x2460 146097)))
 (let ((?x1139 (div ?x483 36524)))
 (let ((?x919 (ite (<= 4 ?x1139) 3 ?x1139)))
 (let ((?x797 (- ?x483 (* ?x919 36524))))
 (let ((?x540 (mod ?x797 1461)))
 (let ((?x1062 (div ?x540 365)))
 (let ((?x895 (ite (<= 4 ?x1062) 3 ?x1062)))
 (let ((?x720 (+ (+ (* (div ?x2460 146097) 400) (* ?x919 100)) (* (div ?x797 1461) 4))))
 (let ((?x3702 (+ (+ ?x720 ?x895) 1)))
 (let (($x840 (or (and (= (mod ?x3702 4) 0) (and (distinct (mod ?x3702 100) 0) true)) (= (mod ?x3702 400) 0))))
 (let ((?x970 (- ?x540 (* ?x895 365))))
 (let ((?x563 (ite $x840 31 31)))
 (let (($x3531 (>= ?x970 ?x563)))
 (let ((?x566 (ite $x3531 (+ (- ?x970 ?x563) 1) (+ (- ?x970 (ite $x840 0 0)) 1))))
 (let ((?x791 (ite $x840 60 59)))
 (let (($x559 (>= ?x970 ?x791)))
 (let ((?x1175 (ite $x840 91 90)))
 (let (($x452 (>= ?x970 ?x1175)))
 (let ((?x1145 (ite $x452 (+ (- ?x970 ?x1175) 1) (ite $x559 (+ (- ?x970 ?x791) 1) ?x566))))
 (let ((?x474 (ite $x840 121 120)))
 (let (($x423 (>= ?x970 ?x474)))
 (let ((?x834 (ite $x840 152 151)))
 (let (($x817 (>= ?x970 ?x834)))
 (let ((?x1083 (ite $x817 (+ (- ?x970 ?x834) 1) (ite $x423 (+ (- ?x970 ?x474) 1) ?x1145))))
 (let ((?x2063 (ite $x840 182 181)))
 (let (($x1034 (>= ?x970 ?x2063)))
 (let ((?x403 (ite $x840 213 212)))
 (let (($x3506 (>= ?x970 ?x403)))
 (let ((?x569 (ite $x3506 (+ (- ?x970 ?x403) 1) (ite $x1034 (+ (- ?x970 ?x2063) 1) ?x1083))))
 (let ((?x1061 (ite $x840 244 243)))
 (let (($x482 (>= ?x970 ?x1061)))
 (let ((?x442 (ite $x840 274 273)))
 (let (($x3231 (>= ?x970 ?x442)))
 (let ((?x3271 (ite $x3231 (+ (- ?x970 ?x442) 1) (ite $x482 (+ (- ?x970 ?x1061) 1) ?x569))))
 (let ((?x927 (ite $x840 305 304)))
 (let (($x872 (>= ?x970 ?x927)))
 (let ((?x1102 (ite $x840 335 334)))
 (let (($x627 (>= ?x970 ?x1102)))
 (let ((?x3230 (ite $x627 (+ (- ?x970 ?x1102) 1) (ite $x872 (+ (- ?x970 ?x927) 1) ?x3271))))
 (let ((?x936 (ite $x423 5 (ite $x452 4 (ite $x559 3 (ite $x3531 2 1))))))
 (let ((?x450 (ite $x482 9 (ite $x3506 8 (ite $x1034 7 (ite $x817 6 ?x936))))))
 (let ((?x991 (+ (ite $x627 12 (ite $x872 11 (ite $x3231 10 ?x450))) (+ (* 0 12) 1))))
 (let ((?x746 (- ?x991 1)))
 (let ((?x823 (+ (mod ?x746 12) 1)))
 (let ((?x876 (ite (or (= ?x823 4) (= ?x823 6) (= ?x823 9) (= ?x823 11)) 30 31)))
 (let (($x1053 (and (= (mod (+ ?x3702 (+ 0 (div ?x746 12))) 4) 0) (and (distinct (mod (+ ?x3702 (+ 0 (div ?x746 12))) 100) 0) true))))
 (let (($x2064 (or $x1053 (= (mod (+ ?x3702 (+ 0 (div ?x746 12))) 400) 0))))
 (let ((?x742 (ite (= ?x823 2) (ite $x2064 29 28) ?x876)))
 (let ((?x939 (ite (> 1 ?x3230) 1 (ite (> ?x3230 ?x742) ?x742 ?x3230))))
 (let ((?x864 (ite (> 1 ?x939) 1 (ite (> ?x939 ?x742) ?x742 ?x939))))
 (let ((?x443 (ite (= 2 ?x823) (ite $x2064 31 31) (ite (= 1 ?x823) (ite $x2064 0 0) 0))))
 (let ((?x854 (ite (= 4 ?x823) (ite $x2064 91 90) (ite (= 3 ?x823) (ite $x2064 60 59) ?x443))))
 (let ((?x415 (ite (= 6 ?x823) (ite $x2064 152 151) (ite (= 5 ?x823) (ite $x2064 121 120) ?x854))))
 (let ((?x492 (ite (= 8 ?x823) (ite $x2064 213 212) (ite (= 7 ?x823) (ite $x2064 182 181) ?x415))))
 (let ((?x807 (ite (= 10 ?x823) (ite $x2064 274 273) (ite (= 9 ?x823) (ite $x2064 244 243) ?x492))))
 (let ((?x1066 (ite (= 12 ?x823) (ite $x2064 335 334) (ite (= 11 ?x823) (ite $x2064 305 304) ?x807))))
 (let ((?x843 (+ (* 365 (- (+ ?x3702 (+ 0 (div ?x746 12))) 1)) (div (- (+ ?x3702 (+ 0 (div ?x746 12))) 1) 4))))
 (let ((?x855 (+ (- ?x843 (div (- (+ ?x3702 (+ 0 (div ?x746 12))) 1) 100)) (div (- (+ ?x3702 (+ 0 (div ?x746 12))) 1) 400))))
 (let ((?x494 (+ (+ (- (+ (+ ?x855 ?x1066) (- ?x864 1)) 730179) 0) 730179)))
 (let ((?x716 (mod ?x494 146097)))
 (let ((?x3057 (div ?x716 36524)))
 (let ((?x603 (ite (<= 4 ?x3057) 3 ?x3057)))
 (let ((?x3030 (- ?x716 (* ?x603 36524))))
 (let ((?x858 (mod ?x3030 1461)))
 (let ((?x413 (div ?x858 365)))
 (let ((?x405 (ite (<= 4 ?x413) 3 ?x413)))
 (let ((?x2176 (+ (+ (* (div ?x494 146097) 400) (* ?x603 100)) (* (div ?x3030 1461) 4))))
 (let ((?x448 (+ (+ ?x2176 ?x405) 1)))
 (let (($x582 (or (and (= (mod ?x448 4) 0) (and (distinct (mod ?x448 100) 0) true)) (= (mod ?x448 400) 0))))
 (let ((?x754 (- ?x858 (* ?x405 365))))
 (let ((?x2914 (ite $x582 31 31)))
 (let (($x757 (>= ?x754 ?x2914)))
 (let ((?x1104 (ite $x757 (+ (- ?x754 ?x2914) 1) (+ (- ?x754 (ite $x582 0 0)) 1))))
 (let ((?x2645 (ite $x582 60 59)))
 (let (($x810 (>= ?x754 ?x2645)))
 (let ((?x1103 (ite $x582 91 90)))
 (let (($x2946 (>= ?x754 ?x1103)))
 (let ((?x1046 (ite $x2946 (+ (- ?x754 ?x1103) 1) (ite $x810 (+ (- ?x754 ?x2645) 1) ?x1104))))
 (let ((?x412 (ite $x582 121 120)))
 (let (($x1699 (>= ?x754 ?x412)))
 (let ((?x967 (ite $x582 152 151)))
 (let (($x826 (>= ?x754 ?x967)))
 (let ((?x958 (ite $x826 (+ (- ?x754 ?x967) 1) (ite $x1699 (+ (- ?x754 ?x412) 1) ?x1046))))
 (let ((?x1039 (ite $x582 182 181)))
 (let (($x696 (>= ?x754 ?x1039)))
 (let ((?x713 (ite $x582 213 212)))
 (let (($x1507 (>= ?x754 ?x713)))
 (let ((?x2383 (ite $x1507 (+ (- ?x754 ?x713) 1) (ite $x696 (+ (- ?x754 ?x1039) 1) ?x958))))
 (let ((?x1132 (ite $x582 244 243)))
 (let (($x736 (>= ?x754 ?x1132)))
 (let ((?x715 (ite $x582 274 273)))
 (let (($x4120 (>= ?x754 ?x715)))
 (let ((?x542 (ite $x4120 (+ (- ?x754 ?x715) 1) (ite $x736 (+ (- ?x754 ?x1132) 1) ?x2383))))
 (let ((?x692 (ite $x582 305 304)))
 (let (($x1096 (>= ?x754 ?x692)))
 (let ((?x1685 (ite $x582 335 334)))
 (let (($x884 (>= ?x754 ?x1685)))
 (let ((?x2982 (ite $x884 (+ (- ?x754 ?x1685) 1) (ite $x1096 (+ (- ?x754 ?x692) 1) ?x542))))
 (let (($x917 (= 0 0)))
 (let (($x1528 (= (mod (ite $x917 (+ ?x3702 (+ 0 (div ?x746 12))) ?x448) 400) 0)))
 (let (($x1734 (and (distinct (mod (ite $x917 (+ ?x3702 (+ 0 (div ?x746 12))) ?x448) 100) 0) true)))
 (let (($x2917 (= (mod (ite $x917 (+ ?x3702 (+ 0 (div ?x746 12))) ?x448) 4) 0)))
 (let (($x500 (or (and $x2917 $x1734) $x1528)))
 (let ((?x3140 (ite $x1699 5 (ite $x2946 4 (ite $x810 3 (ite $x757 2 1))))))
 (let ((?x590 (ite $x736 9 (ite $x1507 8 (ite $x696 7 (ite $x826 6 ?x3140))))))
 (let ((?x524 (ite $x917 ?x823 (ite $x884 12 (ite $x1096 11 (ite $x4120 10 ?x590))))))
 (let ((?x568 (ite (= 2 ?x524) (ite $x500 31 31) (ite (= 1 ?x524) (ite $x500 0 0) 0))))
 (let ((?x2345 (ite (= 4 ?x524) (ite $x500 91 90) (ite (= 3 ?x524) (ite $x500 60 59) ?x568))))
 (let ((?x537 (ite (= 6 ?x524) (ite $x500 152 151) (ite (= 5 ?x524) (ite $x500 121 120) ?x2345))))
 (let ((?x2326 (ite (= 8 ?x524) (ite $x500 213 212) (ite (= 7 ?x524) (ite $x500 182 181) ?x537))))
 (let ((?x1514 (ite (= 10 ?x524) (ite $x500 274 273) (ite (= 9 ?x524) (ite $x500 244 243) ?x2326))))
 (let ((?x1656 (ite (= 12 ?x524) (ite $x500 335 334) (ite (= 11 ?x524) (ite $x500 305 304) ?x1514))))
 (let ((?x805 (+ ?x3702 (+ 0 (div ?x746 12)))))
 (let ((?x2666 (ite $x917 ?x805 ?x448)))
 (let ((?x522 (- ?x2666 1)))
 (let ((?x882 (+ (- (+ (* 365 ?x522) (div ?x522 4)) (div ?x522 100)) (div ?x522 400))))
 (let ((?x3547 (+ (- (+ (+ ?x882 ?x1656) (- (ite $x917 ?x864 ?x2982) 1)) 730179) 15)))
 (= ?x3547 y_days))))))))))))))))))))))))))))))))))))))))))))))))))))))))))))))))))))))))))))))))))))))))))))))))))))))))))))))))))))))))
(assert
 (>= y_days 8492))
(check-sat)
